
<<< setup


<<< generate

Version identifier: 12.10.0.0 | 2019-11-26 | 843d4de2ae
CPXPARAM_TimeLimit                               1200
Tried aggregator 3 times.
MIP Presolve eliminated 5119015 rows and 2889157 columns.
MIP Presolve modified 413689 coefficients.
Aggregator did 954 substitutions.
Reduced MIP has 123081 rows, 121439 columns, and 784590 nonzeros.
Reduced MIP has 121389 binaries, 0 generals, 0 SOSs, and 0 indicators.
Presolve time = 7.70 sec. (4772.99 ticks)
Found incumbent of value 13719.000000 after 11.86 sec. (6193.99 ticks)
Probing fixed 2697 vars, tightened 0 bounds.
Probing time = 52.44 sec. (10052.15 ticks)
Tried aggregator 1 time.
Detecting symmetries...
MIP Presolve eliminated 2686 rows and 2697 columns.
Reduced MIP has 120395 rows, 118742 columns, and 766599 nonzeros.
Reduced MIP has 118692 binaries, 0 generals, 0 SOSs, and 0 indicators.
Presolve time = 1.00 sec. (462.69 ticks)
Probing time = 0.36 sec. (63.23 ticks)
Clique table members: 429504.
MIP emphasis: balance optimality and feasibility.
MIP search method: dynamic search.
Parallel mode: deterministic, using up to 4 threads.
Root relaxation solution time = 6.17 sec. (3893.38 ticks)

        Nodes                                         Cuts/
   Node  Left     Objective  IInf  Best Integer    Best Bound    ItCnt     Gap

*     0+    0                        13719.0000   136203.0000           892.81%
      0     0    73482.0000   350    13719.0000    73482.0000    12965  435.62%
*     0+    0                        16801.0000    73482.0000           337.37%
      0     0    73482.0000   350    16801.0000      Cuts: 29    13468  337.37%
      0     0    73482.0000   350    16801.0000     Cuts: 726    17878  337.37%
      0     0    73482.0000   350    16801.0000    Cuts: 1977    23092  337.37%
      0     0    73482.0000   350    16801.0000    Cuts: 5716    36205  337.37%
Heuristic still looking.
Detecting symmetries...
      0     2    73482.0000   160    16801.0000    73482.0000    36205  337.37%
Elapsed time = 431.34 sec. (171216.43 ticks, tree = 0.02 MB, solutions = 2)
      1     3    73482.0000   550    16801.0000    73482.0000    53088  337.37%
      2     4    73482.0000   393    16801.0000    73482.0000    73521  337.37%
      3     3    73482.0000   285    16801.0000    73482.0000    51701  337.37%
      4     6    73482.0000   487    16801.0000    73482.0000   110210  337.37%
      5     7    73482.0000   484    16801.0000    73482.0000   112443  337.37%
      6     8    73482.0000   561    16801.0000    73482.0000   120939  337.37%
      7     5    73482.0000   454    16801.0000    73482.0000    87007  337.37%
      8     8    73482.0000   657    16801.0000    73482.0000   127513  337.37%
      9     9    73482.0000   472    16801.0000    73482.0000   132693  337.37%
     10     9    73482.0000   335    16801.0000    73482.0000   153076  337.37%
Elapsed time = 673.53 sec. (251010.20 ticks, tree = 0.23 MB, solutions = 2)
     11    11    73482.0000   328    16801.0000    73482.0000   171172  337.37%
     12    12    73482.0000   313    16801.0000    73482.0000   172877  337.37%
     13    10    73482.0000   351    16801.0000    73482.0000   181646  337.37%
     14    13    73482.0000   300    16801.0000    73482.0000   184075  337.37%
     15    14    73482.0000   342    16801.0000    73482.0000   228224  337.37%
     16    14    73482.0000   303    16801.0000    73482.0000   195166  337.37%
     17    15    73482.0000   321    16801.0000    73482.0000   228866  337.37%
     19    18    73482.0000   300    16801.0000    73482.0000   253120  337.37%
     20    17    73482.0000   335    16801.0000    73482.0000   263057  337.37%
     22     5    73482.0000   303    16801.0000    73482.0000   101286  337.37%
Elapsed time = 753.97 sec. (284539.34 ticks, tree = 0.02 MB, solutions = 2)
     24    24    73482.0000   312    16801.0000    73482.0000   299773  337.37%
     28    23    73482.0000   315    16801.0000    73482.0000   326289  337.37%
     29    24    73482.0000   332    16801.0000    73482.0000   332022  337.37%
     30    24    73482.0000   297    16801.0000    73482.0000   302984  337.37%
     31     4    73482.0000   299    16801.0000    73482.0000    73594  337.37%
     35    27    73482.0000   298    16801.0000    73482.0000   354262  337.37%
     38    29    73482.0000   258    16801.0000    73482.0000   357083  337.37%
     39    30    73482.0000   307    16801.0000    73482.0000   360344  337.37%
     44    32    73482.0000   324    16801.0000    73482.0000   387451  337.37%
     48    34    73482.0000   306    16801.0000    73482.0000   390693  337.37%
Elapsed time = 819.92 sec. (303745.72 ticks, tree = 3.71 MB, solutions = 2)
     50    35    73482.0000   284    16801.0000    73482.0000   368856  337.37%
     53    35    73482.0000   379    16801.0000    73482.0000   394203  337.37%
     56    37    73482.0000   311    16801.0000    73482.0000   398337  337.37%
     62    39    73482.0000   322    16801.0000    73482.0000   400414  337.37%
     64    41    73482.0000   316    16801.0000    73482.0000   403139  337.37%
     67    38    73482.0000   308    16801.0000    73482.0000   377195  337.37%
     69    43    73482.0000   312    16801.0000    73482.0000   408565  337.37%
     74    45    73482.0000   312    16801.0000    73482.0000   410125  337.37%
     76    52    73482.0000   285    16801.0000    73482.0000   464339  337.37%
     81    54    73482.0000   297    16801.0000    73482.0000   465681  337.37%
Elapsed time = 858.92 sec. (316505.06 ticks, tree = 3.61 MB, solutions = 2)
     87    71    73482.0000   285    16801.0000    73482.0000   521291  337.37%
     91    57    73482.0000   285    16801.0000    73482.0000   468881  337.37%
     96    73    73482.0000   268    16801.0000    73482.0000   524142  337.37%
    100    59    73482.0000   285    16801.0000    73482.0000   472669  337.37%
    105    61    73482.0000   285    16801.0000    73482.0000   474488  337.37%
    107    62    73482.0000   298    16801.0000    73482.0000   476739  337.37%
    112    64    73482.0000   318    16801.0000    73482.0000   478812  337.37%
    114    66    73482.0000   290    16801.0000    73482.0000   482229  337.37%
    118    69    73482.0000   273    16801.0000    73482.0000   483874  337.37%
    121    71    73482.0000   291    16801.0000    73482.0000   485823  337.37%
Elapsed time = 900.95 sec. (328600.18 ticks, tree = 4.68 MB, solutions = 2)
    123    79    73482.0000   284    16801.0000    73482.0000   538102  337.37%
    128    78    73482.0000   314    16801.0000    73482.0000   510290  337.37%
    131    81    73482.0000   362    16801.0000    73482.0000   543856  337.37%
    135    96    73482.0000   296    16801.0000    73482.0000   570649  337.37%
    136   122    73482.0000   307    16801.0000    73482.0000   607220  337.37%
    137    83    73482.0000   295    16801.0000    73482.0000   550301  337.37%
    139   123    73482.0000   291    16801.0000    73482.0000   611252  337.37%
    144    98    73482.0000   299    16801.0000    73482.0000   573763  337.37%
    147    88    73482.0000   251    16801.0000    73482.0000   554664  337.37%
    148   124    73482.0000   264    16801.0000    73482.0000   615887  337.37%
Elapsed time = 943.47 sec. (341255.16 ticks, tree = 9.55 MB, solutions = 2)
    151   100    73482.0000   302    16801.0000    73482.0000   575879  337.37%
    154   101    73482.0000   322    16801.0000    73482.0000   577390  337.37%
    156    91    73482.0000   256    16801.0000    73482.0000   557647  337.37%
    161    91    73482.0000   257    16801.0000    73482.0000   558473  337.37%
    165    92    73482.0000   230    16801.0000    73482.0000   560117  337.37%
    171   127    73482.0000   284    16801.0000    73482.0000   620768  337.37%
    173   106    73482.0000   279    16801.0000    73482.0000   582432  337.37%
    176   129    73482.0000   280    16801.0000    73482.0000   624289  337.37%
    180   126    73482.0000   288    16801.0000    73482.0000   686868  337.37%
    181   127    73482.0000   289    16801.0000    73482.0000   689356  337.37%
Elapsed time = 1020.92 sec. (356354.77 ticks, tree = 9.12 MB, solutions = 2)
    182   144    infeasible          16801.0000    73482.0000   722396  337.37%
    183   156    infeasible          16801.0000    73482.0000   738131  337.37%
    184   132    73482.0000   640    16801.0000    73482.0000   717171  337.37%
    185   155    infeasible          16801.0000    73482.0000   738992  337.37%
    186   145    73482.0000   264    16801.0000    73482.0000   727630  337.37%
    187   128    73482.0000   636    16801.0000    73482.0000   714249  337.37%
    188   154    infeasible          16801.0000    73482.0000   739958  337.37%
    190   156    infeasible          16801.0000    73482.0000   745079  337.37%

Implied bound cuts applied:  555
Flow cuts applied:  17
Mixed integer rounding cuts applied:  1104

Root node processing (before b&c):
  Real time             =  421.69 sec. (168413.44 ticks)
Parallel b&c, 4 threads:
  Real time             =  778.84 sec. (230289.73 ticks)
  Sync time (average)   =  104.31 sec.
  Wait time (average)   =    0.00 sec.
                          ------------
Total (root+branch&cut) = 1200.53 sec. (398703.18 ticks)

<<< solve


OBJECTIVE: 16801

<<< post process


<<< done

